30 300
59 113
92 144
95 74
6 3
44 89
8 11
77 214
60 169
37 110
49 127
21 36
57 80
84 49
16 33
27 69
57 78
70 193
47 131
16 11
44 75
44 39
93 89
74 190
34 100
78 207
2 5
74 181
25 38
46 104
55 85

//res
8 9 10 17 18 24 26